78
[[-1, 0, 0, 0, 45257, 39645, 24320, 0, 0, 0, 0, 0, 0, 44727, 0, 45799, 0, 0, 0, 40534, 0, 38418, 39143, 0, 0, 0, 0, 0, 31958, 0, 0, 22449, 0, 0, 0, 0, 0, 44377, 0, 0, 0, 0, 36566, 0, 0, 0, 0, 0, 0, 0, 0, 0, 0, 0, 0, 0, 0, 21557, 0, 0, 0, 0, 0, 0, 39302, 0, 0, 0, 25556, 0, 0, 18187, 0, 41700, 0, 38743, 42631, 0],[0, -1, 0, 0, 0, 0, 0, 17399, 0, 0, 0, 0, 0, 38068, 0, 14913, 16633, 0, 24481, 0, 0, 0, 22278, 0, 0, 0, 41854, 37876, 43147, 0, 0, 39470, 0, 0, 39076, 0, 0, 0, 0, 36722, 43372, 0, 0, 0, 0, 0, 0, 0, 35609, 0, 0, 0, 21649, 21041, 0, 0, 0, 0, 0, 0, 3177, 0, 0, 0, 0, 0, 0, 0, 0, 13728, 41578, 44372, 0, 0, 43120, 0, 0, 0],[0, 0, -1, 0, 25299, 0, 0, 0, 0, 0, 0, 39969, 13368, 0, 0, 0, 0, 19855, 0, 0, 0, 0, 0, 0, 0, 0, 0, 0, 0, 0, 33695, 0, 0, 0, 0, 33495, 36759, 26530, 40783, 19023, 0, 0, 0, 0, 26935, 0, 0, 0, 0, 0, 15399, 0, 38840, 0, 0, 0, 0, 0, 0, 0, 37786, 0, 13207, 0, 0, 0, 43186, 0, 0, 30807, 37124, 0, 0, 0, 0, 0, 0, 0],[0, 0, 0, -1, 0, 0, 0, 0, 0, 0, 0, 14726, 31346, 0, 27371, 0, 27082, 45784, 42394, 0, 0, 0, 0, 0, 0, 39896, 0, 0, 0, 0, 25805, 0, 0, 0, 14092, 0, 0, 0, 30343, 0, 0, 36153, 0, 0, 0, 20602, 35559, 0, 0, 0, 39439, 21585, 3083, 0, 18527, 12711, 0, 0, 0, 0, 22279, 0, 0, 0, 0, 0, 0, 0, 0, 0, 0, 0, 33048, 0, 0, 28497, 0, 0],[45257, 0, 25299, 0, -1, 0, 0, 0, 0, 0, 18377, 0, 0, 0, 39203, 41911, 0, 0, 20300, 39625, 0, 29226, 0, 0, 0, 0, 41944, 0, 0, 0, 0, 0, 34842, 0, 0, 36506, 31734, 0, 29007, 0, 0, 0, 0, 23562, 31762, 18783, 31695, 0, 0, 0, 0, 26136, 0, 0, 0, 43863, 21175, 0, 0, 0, 0, 0, 0, 0, 0, 0, 0, 0, 0, 13226, 0, 0, 0, 45087, 0, 0, 0, 21781],[39645, 0, 0, 0, 0, -1, 0, 43607, 0, 0, 38465, 0, 0, 0, 0, 0, 0, 0, 0, 0, 29011, 0, 0, 0, 0, 0, 0, 0, 0, 0, 0, 11194, 0, 0, 0, 0, 29604, 0, 40804, 0, 0, 0, 39894, 0, 0, 26263, 34621, 0, 37214, 0, 0, 0, 0, 0, 0, 0, 0, 0, 0, 39645, 0, 21075, 42434, 0, 37684, 0, 21125, 35292, 0, 36308, 0, 0, 41472, 0, 0, 0, 28802, 33985],[24320, 0, 0, 0, 0, 0, -1, 0, 0, 0, 0, 38223, 22922, 0, 0, 0, 22396, 0, 0, 23738, 0, 0, 43305, 0, 0, 0, 31022, 0, 0, 10401, 0, 0, 0, 21760, 0, 0, 38300, 0, 10337, 0, 42561, 31102, 44477, 34109, 0, 25488, 0, 0, 0, 0, 0, 0, 0, 0, 0, 0, 0, 0, 0, 0, 0, 0, 0, 0, 43096, 0, 0, 0, 0, 42447, 43862, 0, 0, 44247, 0, 0, 0, 40398],[0, 17399, 0, 0, 0, 43607, 0, -1, 0, 0, 0, 18385, 31061, 0, 0, 0, 0, 0, 0, 0, 0, 0, 0, 0, 41947, 0, 0, 0, 29742, 22719, 0, 0, 0, 32716, 34641, 0, 0, 0, 0, 4561, 0, 0, 40952, 31745, 0, 0, 0, 41188, 0, 0, 28213, 0, 0, 36483, 0, 0, 0, 45561, 0, 0, 32122, 0, 0, 37786, 0, 0, 0, 29032, 0, 0, 0, 0, 0, 0, 5741, 0, 0, 0],[0, 0, 0, 0, 0, 0, 0, 0, -1, 3677, 37367, 0, 38551, 0, 0, 0, 0, 0, 29781, 0, 12586, 0, 0, 0, 0, 0, 0, 0, 24071, 0, 0, 0, 31595, 0, 0, 22130, 35792, 0, 34100, 0, 0, 0, 0, 0, 0, 0, 0, 33165, 0, 0, 10719, 38987, 36340, 0, 0, 0, 0, 41620, 0, 40555, 0, 0, 0, 0, 0, 0, 0, 0, 0, 0, 41323, 36876, 0, 0, 0, 43635, 0, 0],[0, 0, 0, 0, 0, 0, 0, 0, 3677, -1, 0, 0, 13368, 0, 11664, 11636, 0, 29520, 0, 0, 0, 0, 0, 0, 0, 0, 0, 0, 0, 28227, 0, 31476, 0, 0, 0, 0, 20436, 31746, 0, 26481, 24141, 0, 0, 0, 0, 0, 0, 0, 43380, 0, 0, 0, 0, 0, 31988, 0, 37291, 0, 0, 0, 0, 0, 9163, 0, 0, 0, 0, 41883, 0, 0, 31407, 41629, 0, 0, 38271, 0, 0, 29510],[0, 0, 0, 0, 18377, 38465, 0, 0, 37367, 0, -1, 0, 0, 0, 25983, 0, 0, 0, 0, 0, 26466, 0, 0, 46102, 0, 0, 8726, 0, 19834, 0, 0, 0, 35601, 0, 39011, 0, 33413, 0, 43520, 0, 0, 0, 0, 0, 14022, 0, 41136, 0, 0, 0, 0, 0, 0, 0, 2233, 0, 0, 0, 0, 0, 0, 0, 0, 26926, 0, 0, 32914, 34537, 0, 32198, 0, 0, 36853, 0, 0, 0, 0, 36779],[0, 0, 39969, 14726, 0, 0, 38223, 18385, 0, 0, 0, -1, 0, 0, 0, 0, 39539, 0, 0, 14654, 0, 0, 0, 32362, 0, 0, 38704, 0, 0, 0, 0, 0, 0, 0, 0, 0, 0, 9913, 25936, 0, 0, 0, 0, 35853, 38459, 0, 0, 0, 0, 0, 25338, 34560, 7410, 0, 0, 0, 0, 0, 0, 0, 0, 0, 0, 25170, 0, 18919, 0, 0, 0, 0, 0, 0, 0, 0, 0, 45780, 0, 0],[0, 0, 13368, 31346, 0, 0, 22922, 31061, 38551, 13368, 0, 0, -1, 33455, 0, 0, 0, 44608, 0, 19983, 0, 0, 0, 0, 0, 0, 0, 31069, 0, 38795, 16391, 37783, 41281, 25622, 0, 0, 0, 26878, 0, 0, 0, 30399, 0, 32704, 0, 0, 15818, 0, 39830, 35423, 0, 37214, 0, 0, 0, 43434, 0, 0, 0, 0, 0, 0, 0, 0, 0, 0, 0, 10172, 0, 0, 7168, 0, 0, 0, 0, 0, 41626, 23080],[44727, 38068, 0, 0, 0, 0, 0, 0, 0, 0, 0, 0, 33455, -1, 0, 0, 28871, 34296, 0, 0, 43526, 0, 0, 0, 0, 0, 42697, 16863, 0, 0, 0, 0, 45115, 0, 0, 0, 27572, 0, 0, 0, 0, 0, 0, 0, 18934, 27267, 0, 20257, 0, 0, 0, 0, 5278, 0, 30431, 0, 18760, 0, 0, 0, 0, 33460, 0, 0, 29892, 44785, 0, 0, 0, 0, 0, 30375, 0, 0, 24219, 0, 0, 0],[0, 0, 0, 27371, 39203, 0, 0, 0, 0, 11664, 25983, 0, 0, 0, -1, 0, 32515, 0, 0, 44569, 0, 0, 0, 0, 22511, 10692, 37799, 0, 0, 0, 0, 0, 43970, 0, 0, 0, 0, 0, 0, 24567, 0, 36034, 4336, 0, 33379, 0, 28565, 0, 0, 0, 0, 0, 0, 0, 0, 0, 32225, 0, 0, 0, 42554, 19698, 0, 31371, 0, 0, 0, 13550, 0, 0, 0, 0, 35930, 0, 43268, 0, 0, 0],[45799, 14913, 0, 0, 41911, 0, 0, 0, 0, 11636, 0, 0, 0, 0, 0, -1, 0, 0, 11152, 17414, 41749, 14036, 0, 0, 15559, 0, 0, 0, 0, 16309, 0, 0, 0, 0, 0, 0, 38016, 0, 0, 13139, 0, 24131, 0, 0, 0, 0, 0, 0, 20850, 17238, 0, 0, 0, 0, 0, 0, 0, 0, 0, 0, 11436, 0, 0, 0, 0, 0, 0, 0, 0, 0, 0, 22050, 0, 0, 0, 0, 0, 0],[0, 16633, 0, 27082, 0, 0, 22396, 0, 0, 0, 0, 39539, 0, 28871, 32515, 0, -1, 0, 0, 26756, 37627, 0, 0, 0, 0, 0, 0, 0, 0, 0, 30423, 0, 0, 41157, 0, 0, 0, 30478, 4569, 0, 20560, 0, 12447, 0, 39306, 0, 0, 0, 11564, 0, 0, 17339, 0, 0, 0, 0, 0, 0, 0, 0, 0, 0, 0, 30369, 0, 34801, 0, 0, 0, 44720, 0, 33691, 15877, 0, 0, 0, 0, 21308],[0, 0, 19855, 45784, 0, 0, 0, 0, 0, 29520, 0, 0, 44608, 34296, 0, 0, 0, -1, 39660, 0, 0, 0, 0, 0, 0, 0, 29749, 0, 40880, 35137, 0, 0, 0, 0, 0, 0, 0, 0, 0, 0, 0, 0, 0, 0, 0, 0, 0, 43573, 0, 3760, 0, 0, 20470, 0, 0, 0, 0, 42835, 0, 0, 0, 0, 0, 0, 0, 0, 0, 34112, 45792, 30333, 0, 0, 0, 30549, 0, 0, 0, 0],[0, 24481, 0, 42394, 20300, 0, 0, 0, 29781, 0, 0, 0, 0, 0, 0, 11152, 0, 39660, -1, 0, 0, 0, 0, 0, 0, 0, 0, 0, 0, 0, 0, 42706, 0, 0, 0, 0, 0, 0, 0, 0, 0, 0, 0, 0, 0, 0, 0, 0, 0, 0, 36473, 24020, 43002, 0, 0, 0, 0, 33850, 36121, 0, 3947, 20329, 0, 0, 39065, 45164, 0, 0, 13735, 0, 0, 0, 0, 0, 29358, 0, 0, 30578],[40534, 0, 0, 0, 39625, 0, 23738, 0, 0, 0, 0, 14654, 19983, 0, 44569, 17414, 26756, 0, 0, -1, 0, 0, 0, 0, 0, 46328, 0, 0, 0, 35083, 0, 41128, 0, 0, 0, 0, 0, 23414, 0, 36329, 26581, 3447, 0, 0, 42301, 35723, 0, 24491, 0, 0, 0, 0, 37138, 23978, 0, 0, 0, 45414, 22040, 0, 0, 0, 0, 0, 0, 0, 0, 0, 0, 0, 0, 42993, 0, 0, 0, 28678, 0, 0],[0, 0, 0, 0, 0, 29011, 0, 0, 12586, 0, 26466, 0, 0, 43526, 0, 41749, 37627, 0, 0, 0, -1, 39193, 40155, 26662, 24316, 0, 43300, 0, 0, 0, 0, 0, 36004, 0, 0, 0, 0, 0, 0, 0, 0, 0, 0, 18179, 0, 16812, 0, 27058, 0, 30250, 0, 0, 0, 0, 0, 0, 33308, 0, 0, 0, 0, 0, 0, 0, 28756, 0, 0, 0, 0, 40333, 25357, 0, 0, 44694, 0, 18991, 27441, 0],[38418, 0, 0, 0, 29226, 0, 0, 0, 0, 0, 0, 0, 0, 0, 0, 14036, 0, 0, 0, 0, 39193, -1, 0, 0, 0, 35188, 28127, 0, 41094, 0, 0, 0, 0, 0, 0, 0, 0, 0, 36373, 0, 0, 0, 0, 0, 0, 0, 0, 0, 44839, 0, 0, 0, 0, 39046, 46176, 0, 0, 0, 0, 22066, 7595, 0, 39149, 0, 14837, 30657, 0, 0, 0, 39149, 0, 0, 0, 39963, 0, 0, 0, 0],[39143, 22278, 0, 0, 0, 0, 43305, 0, 0, 0, 0, 0, 0, 0, 0, 0, 0, 0, 0, 0, 40155, 0, -1, 0, 0, 0, 0, 33042, 0, 45846, 35543, 39964, 33855, 0, 0, 0, 35778, 20672, 0, 0, 0, 0, 0, 0, 0, 0, 0, 0, 0, 36194, 0, 0, 0, 0, 0, 0, 0, 32912, 0, 0, 42908, 0, 39741, 0, 0, 0, 0, 0, 0, 0, 0, 18618, 0, 0, 0, 0, 20560, 28944],[0, 0, 0, 0, 0, 0, 0, 0, 0, 0, 46102, 32362, 0, 0, 0, 0, 0, 0, 0, 0, 26662, 0, 0, -1, 0, 0, 0, 0, 26031, 0, 38606, 0, 39368, 0, 0, 0, 0, 0, 0, 0, 0, 0, 0, 0, 23335, 10665, 43375, 0, 0, 0, 0, 0, 0, 0, 33531, 0, 0, 0, 0, 0, 0, 38465, 28254, 0, 18405, 0, 0, 0, 11374, 42707, 0, 0, 0, 0, 25855, 0, 0, 0],[0, 0, 0, 0, 0, 0, 0, 41947, 0, 0, 0, 0, 0, 0, 22511, 15559, 0, 0, 0, 0, 24316, 0, 0, 0, -1, 0, 0, 0, 0, 12217, 0, 0, 0, 0, 43431, 0, 0, 0, 0, 39868, 0, 0, 2289, 0, 19445, 0, 0, 0, 24886, 0, 0, 0, 0, 43134, 0, 0, 18328, 0, 0, 0, 18851, 0, 0, 0, 0, 41008, 0, 0, 0, 0, 0, 0, 37971, 0, 0, 0, 0, 0],[0, 0, 0, 39896, 0, 0, 0, 0, 0, 0, 0, 0, 0, 0, 10692, 0, 0, 0, 0, 46328, 0, 35188, 0, 0, 0, -1, 36895, 0, 0, 0, 0, 0, 0, 0, 0, 33940, 0, 35938, 0, 15843, 33238, 0, 0, 0, 0, 28957, 0, 0, 35397, 0, 43248, 0, 0, 16588, 0, 0, 0, 19486, 0, 19844, 0, 31446, 0, 0, 0, 0, 0, 40562, 0, 37418, 0, 0, 0, 0, 0, 0, 37977, 0],[0, 41854, 0, 0, 41944, 0, 31022, 0, 0, 0, 8726, 38704, 0, 42697, 37799, 0, 0, 29749, 0, 0, 43300, 28127, 0, 0, 0, 36895, -1, 0, 0, 19168, 0, 43054, 0, 0, 0, 0, 0, 0, 0, 0, 0, 0, 0, 0, 0, 41276, 0, 43023, 0, 0, 0, 0, 0, 0, 0, 0, 0, 0, 0, 40446, 0, 0, 0, 0, 0, 0, 0, 0, 43404, 0, 0, 0, 0, 0, 45274, 26278, 28581, 0],[0, 37876, 0, 0, 0, 0, 0, 0, 0, 0, 0, 0, 31069, 16863, 0, 0, 0, 0, 0, 0, 0, 0, 33042, 0, 0, 0, 0, -1, 0, 0, 0, 0, 0, 43814, 45581, 0, 0, 0, 37037, 42801, 0, 0, 0, 0, 0, 0, 0, 0, 39911, 0, 43085, 0, 8143, 0, 0, 0, 46237, 0, 0, 0, 4140, 36441, 0, 15527, 33089, 0, 0, 0, 0, 0, 0, 0, 16311, 0, 0, 0, 0, 20467],[31958, 43147, 0, 0, 0, 0, 0, 29742, 24071, 0, 19834, 0, 0, 0, 0, 0, 0, 40880, 0, 0, 0, 41094, 0, 26031, 0, 0, 0, 0, -1, 0, 29286, 0, 0, 0, 0, 0, 0, 0, 0, 0, 0, 0, 0, 0, 0, 0, 0, 0, 0, 0, 0, 0, 0, 11779, 0, 0, 0, 0, 0, 0, 0, 0, 43553, 0, 0, 0, 0, 32249, 18264, 0, 0, 0, 38276, 0, 0, 0, 36798, 0],[0, 0, 0, 0, 0, 0, 10401, 22719, 0, 28227, 0, 0, 38795, 0, 0, 16309, 0, 35137, 0, 35083, 0, 0, 45846, 0, 12217, 0, 19168, 0, 0, -1, 0, 30425, 0, 0, 0, 0, 0, 0, 39560, 0, 17751, 0, 0, 15550, 0, 0, 15494, 0, 11984, 0, 46177, 0, 25079, 32065, 41013, 0, 0, 0, 0, 43617, 39965, 0, 0, 33521, 42952, 0, 0, 0, 24595, 0, 0, 0, 0, 4384, 23518, 0, 21105, 0],[0, 0, 33695, 25805, 0, 0, 0, 0, 0, 0, 0, 0, 16391, 0, 0, 0, 30423, 0, 0, 0, 0, 0, 35543, 38606, 0, 0, 0, 0, 29286, 0, -1, 0, 0, 0, 46316, 0, 0, 30701, 0, 0, 0, 0, 0, 0, 0, 0, 0, 0, 0, 22696, 0, 0, 0, 0, 0, 37223, 46143, 32814, 0, 0, 0, 0, 0, 45294, 21933, 0, 0, 28740, 0, 0, 0, 0, 29147, 0, 0, 0, 0, 0],[22449, 39470, 0, 0, 0, 11194, 0, 0, 0, 31476, 0, 0, 37783, 0, 0, 0, 0, 0, 42706, 41128, 0, 0, 39964, 0, 0, 0, 43054, 0, 0, 30425, 0, -1, 39868, 0, 5198, 0, 42154, 0, 11695, 0, 0, 0, 0, 0, 34690, 0, 37488, 0, 0, 0, 0, 0, 0, 0, 30357, 0, 0, 0, 0, 0, 0, 0, 0, 0, 0, 0, 0, 0, 0, 0, 0, 0, 0, 0, 33257, 0, 0, 0],[0, 0, 0, 0, 34842, 0, 0, 0, 31595, 0, 35601, 0, 41281, 45115, 43970, 0, 0, 0, 0, 0, 36004, 0, 33855, 39368, 0, 0, 0, 0, 0, 0, 0, 39868, -1, 0, 33904, 0, 0, 19987, 42040, 0, 0, 0, 0, 42979, 34582, 0, 0, 0, 44296, 0, 18948, 0, 0, 0, 0, 0, 17432, 0, 40455, 45704, 14852, 0, 30622, 0, 38355, 0, 0, 0, 21621, 0, 0, 34911, 0, 44273, 0, 0, 0, 0],[0, 0, 0, 0, 0, 0, 21760, 32716, 0, 0, 0, 0, 25622, 0, 0, 0, 41157, 0, 0, 0, 0, 0, 0, 0, 0, 0, 0, 43814, 0, 0, 0, 0, 0, -1, 0, 0, 0, 19802, 0, 0, 0, 0, 29593, 0, 15386, 0, 45325, 0, 0, 20944, 0, 26458, 32864, 44108, 0, 39225, 0, 0, 0, 34898, 0, 26936, 0, 0, 0, 0, 0, 0, 21704, 0, 0, 31932, 25556, 36430, 0, 0, 0, 0],[0, 39076, 0, 14092, 0, 0, 0, 34641, 0, 0, 39011, 0, 0, 0, 0, 0, 0, 0, 0, 0, 0, 0, 0, 0, 43431, 0, 0, 45581, 0, 0, 46316, 5198, 33904, 0, -1, 0, 46064, 0, 0, 0, 0, 0, 0, 0, 41621, 0, 0, 0, 44797, 0, 0, 0, 22791, 0, 0, 0, 0, 39621, 30894, 0, 0, 0, 23991, 0, 0, 0, 0, 0, 0, 0, 0, 0, 0, 0, 0, 0, 0, 17696],[0, 0, 33495, 0, 36506, 0, 0, 0, 22130, 0, 0, 0, 0, 0, 0, 0, 0, 0, 0, 0, 0, 0, 0, 0, 0, 33940, 0, 0, 0, 0, 0, 0, 0, 0, 0, -1, 4706, 0, 0, 0, 37486, 0, 0, 0, 0, 43334, 0, 0, 0, 19668, 0, 0, 0, 0, 0, 30326, 0, 0, 0, 0, 0, 0, 0, 0, 0, 0, 0, 0, 0, 0, 0, 25108, 0, 37223, 0, 0, 42161, 0],[0, 0, 36759, 0, 31734, 29604, 38300, 0, 35792, 20436, 33413, 0, 0, 27572, 0, 38016, 0, 0, 0, 0, 0, 0, 35778, 0, 0, 0, 0, 0, 0, 0, 0, 42154, 0, 0, 46064, 4706, -1, 0, 0, 44098, 43578, 0, 0, 29103, 0, 0, 0, 0, 0, 0, 0, 0, 0, 39858, 36402, 0, 0, 0, 38256, 0, 0, 0, 27817, 0, 0, 0, 0, 29392, 0, 0, 0, 43489, 0, 0, 33476, 0, 0, 0],[44377, 0, 26530, 0, 0, 0, 0, 0, 0, 31746, 0, 9913, 26878, 0, 0, 0, 30478, 0, 0, 23414, 0, 0, 20672, 0, 0, 35938, 0, 0, 0, 0, 30701, 0, 19987, 19802, 0, 0, 0, -1, 0, 0, 0, 0, 0, 0, 44461, 0, 0, 24299, 0, 13211, 0, 0, 39158, 0, 0, 0, 35901, 38723, 0, 0, 0, 0, 0, 0, 44050, 0, 0, 0, 0, 0, 0, 0, 0, 0, 0, 0, 0, 24484],[0, 0, 40783, 30343, 29007, 40804, 10337, 0, 34100, 0, 43520, 25936, 0, 0, 0, 0, 4569, 0, 0, 0, 0, 36373, 0, 0, 0, 0, 0, 37037, 0, 39560, 0, 11695, 42040, 0, 0, 0, 0, 0, -1, 25588, 0, 0, 38748, 0, 0, 0, 0, 0, 0, 0, 0, 0, 0, 0, 0, 0, 0, 22246, 0, 8711, 0, 0, 0, 31475, 0, 0, 0, 0, 0, 0, 0, 30914, 0, 33734, 0, 38790, 5515, 0],[0, 36722, 19023, 0, 0, 0, 0, 4561, 0, 26481, 0, 0, 0, 0, 24567, 13139, 0, 0, 0, 36329, 0, 0, 0, 0, 39868, 15843, 0, 42801, 0, 0, 0, 0, 0, 0, 0, 0, 44098, 0, 25588, -1, 0, 0, 0, 0, 0, 0, 38876, 0, 0, 0, 0, 0, 0, 0, 38588, 39866, 0, 33322, 29368, 0, 0, 43154, 12684, 45338, 0, 0, 0, 0, 0, 0, 21394, 0, 0, 0, 39840, 0, 0, 0],[0, 43372, 0, 0, 0, 0, 42561, 0, 0, 24141, 0, 0, 0, 0, 0, 0, 20560, 0, 0, 26581, 0, 0, 0, 0, 0, 33238, 0, 0, 0, 17751, 0, 0, 0, 0, 0, 37486, 43578, 0, 0, 0, -1, 0, 0, 0, 0, 44178, 0, 0, 0, 32607, 0, 0, 0, 15980, 0, 0, 0, 0, 30929, 0, 0, 20300, 0, 25001, 0, 0, 0, 0, 0, 32615, 0, 0, 0, 19560, 0, 0, 31729, 0],[0, 0, 0, 36153, 0, 0, 31102, 0, 0, 0, 0, 0, 30399, 0, 36034, 24131, 0, 0, 0, 3447, 0, 0, 0, 0, 0, 0, 0, 0, 0, 0, 0, 0, 0, 0, 0, 0, 0, 0, 0, 0, 0, -1, 0, 30749, 0, 0, 0, 0, 0, 0, 37682, 41716, 0, 0, 0, 0, 31152, 0, 0, 0, 30106, 0, 0, 0, 0, 43427, 6429, 36682, 0, 0, 0, 32179, 0, 0, 0, 0, 32053, 0],[36566, 0, 0, 0, 0, 39894, 44477, 40952, 0, 0, 0, 0, 0, 0, 4336, 0, 12447, 0, 0, 0, 0, 0, 0, 0, 2289, 0, 0, 0, 0, 0, 0, 0, 0, 29593, 0, 0, 0, 0, 38748, 0, 0, 0, -1, 0, 0, 0, 0, 0, 0, 0, 0, 0, 41994, 0, 0, 0, 0, 0, 41491, 0, 0, 0, 0, 0, 4698, 0, 0, 0, 0, 40905, 0, 0, 0, 0, 28745, 0, 0, 0],[0, 0, 0, 0, 23562, 0, 34109, 31745, 0, 0, 0, 35853, 32704, 0, 0, 0, 0, 0, 0, 0, 18179, 0, 0, 0, 0, 0, 0, 0, 0, 15550, 0, 0, 42979, 0, 0, 0, 29103, 0, 0, 0, 0, 30749, 0, -1, 0, 0, 0, 0, 17438, 25858, 0, 20859, 0, 0, 38652, 0, 0, 0, 34679, 0, 0, 37937, 0, 0, 0, 0, 0, 0, 0, 0, 0, 30980, 0, 30886, 0, 0, 31293, 0],[0, 0, 26935, 0, 31762, 0, 0, 0, 0, 0, 14022, 38459, 0, 18934, 33379, 0, 39306, 0, 0, 42301, 0, 0, 0, 23335, 19445, 0, 0, 0, 0, 0, 0, 34690, 34582, 15386, 41621, 0, 0, 44461, 0, 0, 0, 0, 0, 0, -1, 0, 0, 0, 0, 0, 0, 0, 0, 0, 0, 0, 0, 43271, 23631, 0, 0, 0, 31424, 0, 0, 0, 0, 0, 0, 0, 1205, 0, 30300, 21108, 14806, 0, 0, 0],[0, 0, 0, 20602, 18783, 26263, 25488, 0, 0, 0, 0, 0, 0, 27267, 0, 0, 0, 0, 0, 35723, 16812, 0, 0, 10665, 0, 28957, 41276, 0, 0, 0, 0, 0, 0, 0, 0, 43334, 0, 0, 0, 0, 44178, 0, 0, 0, 0, -1, 0, 43789, 0, 0, 0, 0, 0, 0, 0, 0, 0, 0, 18901, 43156, 44116, 45254, 0, 45431, 0, 39599, 27038, 0, 0, 0, 0, 0, 0, 0, 0, 0, 40748, 0],[0, 0, 0, 35559, 31695, 34621, 0, 0, 0, 0, 41136, 0, 15818, 0, 28565, 0, 0, 0, 0, 0, 0, 0, 0, 43375, 0, 0, 0, 0, 0, 15494, 0, 37488, 0, 45325, 0, 0, 0, 0, 0, 38876, 0, 0, 0, 0, 0, 0, -1, 0, 26851, 0, 0, 40848, 0, 9043, 0, 0, 0, 44460, 0, 0, 0, 0, 0, 0, 0, 0, 32507, 0, 0, 0, 0, 0, 0, 27254, 0, 15298, 0, 19146],[0, 0, 0, 0, 0, 0, 0, 41188, 33165, 0, 0, 0, 0, 20257, 0, 0, 0, 43573, 0, 24491, 27058, 0, 0, 0, 0, 0, 43023, 0, 0, 0, 0, 0, 0, 0, 0, 0, 0, 24299, 0, 0, 0, 0, 0, 0, 0, 43789, 0, -1, 0, 0, 0, 0, 0, 0, 0, 25701, 0, 41708, 0, 21368, 0, 0, 27244, 0, 0, 0, 0, 0, 0, 0, 0, 35847, 0, 0, 0, 38341, 0, 0],[0, 35609, 0, 0, 0, 37214, 0, 0, 0, 43380, 0, 0, 39830, 0, 0, 20850, 11564, 0, 0, 0, 0, 44839, 0, 0, 24886, 35397, 0, 39911, 0, 11984, 0, 0, 44296, 0, 44797, 0, 0, 0, 0, 0, 0, 0, 0, 17438, 0, 0, 26851, 0, -1, 0, 0, 0, 0, 0, 0, 37820, 0, 0, 29964, 0, 0, 23062, 0, 0, 22747, 34748, 0, 0, 0, 0, 0, 0, 0, 22427, 0, 0, 0, 44030],[0, 0, 0, 0, 0, 0, 0, 0, 0, 0, 0, 0, 35423, 0, 0, 17238, 0, 3760, 0, 0, 30250, 0, 36194, 0, 0, 0, 0, 0, 0, 0, 22696, 0, 0, 20944, 0, 19668, 0, 13211, 0, 0, 32607, 0, 0, 25858, 0, 0, 0, 0, 0, -1, 27945, 0, 0, 26562, 0, 0, 0, 39690, 39423, 0, 36295, 0, 0, 0, 0, 0, 30296, 0, 0, 0, 42956, 0, 0, 0, 0, 28639, 0, 0],[0, 0, 15399, 39439, 0, 0, 0, 28213, 10719, 0, 0, 25338, 0, 0, 0, 0, 0, 0, 36473, 0, 0, 0, 0, 0, 0, 43248, 0, 43085, 0, 46177, 0, 0, 18948, 0, 0, 0, 0, 0, 0, 0, 0, 37682, 0, 0, 0, 0, 0, 0, 0, 27945, -1, 0, 0, 0, 0, 0, 0, 0, 0, 0, 0, 0, 0, 0, 19033, 0, 0, 0, 32449, 5830, 0, 0, 0, 0, 0, 0, 23955, 0],[0, 0, 0, 21585, 26136, 0, 0, 0, 38987, 0, 0, 34560, 37214, 0, 0, 0, 17339, 0, 24020, 0, 0, 0, 0, 0, 0, 0, 0, 0, 0, 0, 0, 0, 0, 26458, 0, 0, 0, 0, 0, 0, 0, 41716, 0, 20859, 0, 0, 40848, 0, 0, 0, 0, -1, 25973, 0, 40136, 0, 0, 30860, 43502, 33218, 44537, 0, 30376, 0, 3558, 30046, 0, 0, 39920, 0, 40393, 0, 0, 0, 38652, 19948, 17453, 0],[0, 21649, 38840, 3083, 0, 0, 0, 0, 36340, 0, 0, 7410, 0, 5278, 0, 0, 0, 20470, 43002, 37138, 0, 0, 0, 0, 0, 0, 0, 8143, 0, 25079, 0, 0, 0, 32864, 22791, 0, 0, 39158, 0, 0, 0, 0, 41994, 0, 0, 0, 0, 0, 0, 0, 0, 25973, -1, 0, 44358, 42442, 32995, 0, 0, 0, 0, 0, 0, 0, 7279, 0, 24672, 0, 0, 0, 0, 24662, 0, 9208, 0, 0, 0, 0],[0, 21041, 0, 0, 0, 0, 0, 36483, 0, 0, 0, 0, 0, 0, 0, 0, 0, 0, 0, 23978, 0, 39046, 0, 0, 43134, 16588, 0, 0, 11779, 32065, 0, 0, 0, 44108, 0, 0, 39858, 0, 0, 0, 15980, 0, 0, 0, 0, 0, 9043, 0, 0, 26562, 0, 0, 0, -1, 42883, 0, 0, 0, 0, 0, 0, 0, 0, 43434, 0, 8186, 0, 44439, 43930, 0, 32024, 0, 0, 42271, 0, 0, 0, 0],[0, 0, 0, 18527, 0, 0, 0, 0, 0, 31988, 2233, 0, 0, 30431, 0, 0, 0, 0, 0, 0, 0, 46176, 0, 33531, 0, 0, 0, 0, 0, 41013, 0, 30357, 0, 0, 0, 0, 36402, 0, 0, 38588, 0, 0, 0, 38652, 0, 0, 0, 0, 0, 0, 0, 40136, 44358, 42883, -1, 0, 0, 34957, 41978, 0, 0, 29041, 44878, 8506, 41372, 0, 0, 36088, 0, 0, 37880, 45020, 0, 0, 26562, 0, 0, 45746],[0, 0, 0, 12711, 43863, 0, 0, 0, 0, 0, 0, 0, 43434, 0, 0, 0, 0, 0, 0, 0, 0, 0, 0, 0, 0, 0, 0, 0, 0, 0, 37223, 0, 0, 39225, 0, 30326, 0, 0, 0, 39866, 0, 0, 0, 0, 0, 0, 0, 25701, 37820, 0, 0, 0, 42442, 0, 0, -1, 0, 0, 0, 14769, 38514, 0, 33825, 0, 0, 44458, 0, 0, 0, 0, 0, 0, 0, 43549, 0, 0, 6725, 0],[0, 0, 0, 0, 21175, 0, 0, 0, 0, 37291, 0, 0, 0, 18760, 32225, 0, 0, 0, 0, 0, 33308, 0, 0, 0, 18328, 0, 0, 46237, 0, 0, 46143, 0, 17432, 0, 0, 0, 0, 35901, 0, 0, 0, 31152, 0, 0, 0, 0, 0, 0, 0, 0, 0, 0, 32995, 0, 0, 0, -1, 40363, 0, 0, 0, 0, 0, 0, 41193, 0, 0, 0, 0, 0, 0, 0, 44008, 0, 0, 0, 0, 0],[21557, 0, 0, 0, 0, 0, 0, 45561, 41620, 0, 0, 0, 0, 0, 0, 0, 0, 42835, 33850, 45414, 0, 0, 32912, 0, 0, 19486, 0, 0, 0, 0, 32814, 0, 0, 0, 39621, 0, 0, 38723, 22246, 33322, 0, 0, 0, 0, 43271, 0, 44460, 41708, 0, 39690, 0, 30860, 0, 0, 34957, 0, 40363, -1, 23705, 33452, 0, 0, 21602, 0, 0, 0, 0, 0, 0, 35642, 0, 23315, 0, 42996, 0, 0, 33578, 33495],[0, 0, 0, 0, 0, 0, 0, 0, 0, 0, 0, 0, 0, 0, 0, 0, 0, 0, 36121, 22040, 0, 0, 0, 0, 0, 0, 0, 0, 0, 0, 0, 0, 40455, 0, 30894, 0, 38256, 0, 0, 29368, 30929, 0, 41491, 34679, 23631, 18901, 0, 0, 29964, 39423, 0, 43502, 0, 0, 41978, 0, 0, 23705, -1, 0, 36758, 0, 44450, 0, 0, 0, 0, 37125, 0, 0, 45892, 0, 0, 0, 0, 0, 0, 3128],[0, 0, 0, 0, 0, 39645, 0, 0, 40555, 0, 0, 0, 0, 0, 0, 0, 0, 0, 0, 0, 0, 22066, 0, 0, 0, 19844, 40446, 0, 0, 43617, 0, 0, 45704, 34898, 0, 0, 0, 0, 8711, 0, 0, 0, 0, 0, 0, 43156, 0, 21368, 0, 0, 0, 33218, 0, 0, 0, 14769, 0, 33452, 0, -1, 32318, 17724, 0, 0, 40119, 0, 0, 0, 0, 0, 0, 0, 0, 0, 0, 0, 37593, 8343],[0, 3177, 37786, 22279, 0, 0, 0, 32122, 0, 0, 0, 0, 0, 0, 42554, 11436, 0, 0, 3947, 0, 0, 7595, 42908, 0, 18851, 0, 0, 4140, 0, 39965, 0, 0, 14852, 0, 0, 0, 0, 0, 0, 0, 0, 30106, 0, 0, 0, 44116, 0, 0, 0, 36295, 0, 44537, 0, 0, 0, 38514, 0, 0, 36758, 32318, -1, 0, 0, 21230, 0, 0, 35673, 20295, 0, 0, 0, 34372, 0, 0, 0, 0, 17643, 0],[0, 0, 0, 0, 0, 21075, 0, 0, 0, 0, 0, 0, 0, 33460, 19698, 0, 0, 0, 20329, 0, 0, 0, 0, 38465, 0, 31446, 0, 36441, 0, 0, 0, 0, 0, 26936, 0, 0, 0, 0, 0, 43154, 20300, 0, 0, 37937, 0, 45254, 0, 0, 23062, 0, 0, 0, 0, 0, 29041, 0, 0, 0, 0, 17724, 0, -1, 41550, 0, 0, 0, 45573, 29479, 0, 0, 0, 0, 0, 0, 13832, 0, 0, 44258],[0, 0, 13207, 0, 0, 42434, 0, 0, 0, 9163, 0, 0, 0, 0, 0, 0, 0, 0, 0, 0, 0, 39149, 39741, 28254, 0, 0, 0, 0, 43553, 0, 0, 0, 30622, 0, 23991, 0, 27817, 0, 0, 12684, 0, 0, 0, 0, 31424, 0, 0, 27244, 0, 0, 0, 30376, 0, 0, 44878, 33825, 0, 21602, 44450, 0, 0, 41550, -1, 0, 0, 33293, 0, 0, 42084, 0, 0, 0, 0, 0, 0, 0, 0, 0],[0, 0, 0, 0, 0, 0, 0, 37786, 0, 0, 26926, 25170, 0, 0, 31371, 0, 30369, 0, 0, 0, 0, 0, 0, 0, 0, 0, 0, 15527, 0, 33521, 45294, 0, 0, 0, 0, 0, 0, 0, 31475, 45338, 25001, 0, 0, 0, 0, 45431, 0, 0, 0, 0, 0, 0, 0, 43434, 8506, 0, 0, 0, 0, 0, 21230, 0, 0, -1, 0, 0, 0, 0, 16811, 0, 0, 26221, 0, 0, 0, 12386, 0, 6203],[39302, 0, 0, 0, 0, 37684, 43096, 0, 0, 0, 0, 0, 0, 29892, 0, 0, 0, 0, 39065, 0, 28756, 14837, 0, 18405, 0, 0, 0, 33089, 0, 42952, 21933, 0, 38355, 0, 0, 0, 0, 44050, 0, 0, 0, 0, 4698, 0, 0, 0, 0, 0, 22747, 0, 19033, 3558, 7279, 0, 41372, 0, 41193, 0, 0, 40119, 0, 0, 0, 0, -1, 8211, 0, 0, 0, 0, 0, 18022, 10536, 43970, 0, 0, 0, 13216],[0, 0, 0, 0, 0, 0, 0, 0, 0, 0, 0, 18919, 0, 44785, 0, 0, 34801, 0, 45164, 0, 0, 30657, 0, 0, 41008, 0, 0, 0, 0, 0, 0, 0, 0, 0, 0, 0, 0, 0, 0, 0, 0, 43427, 0, 0, 0, 39599, 0, 0, 34748, 0, 0, 30046, 0, 8186, 0, 44458, 0, 0, 0, 0, 0, 0, 33293, 0, 8211, -1, 45136, 0, 0, 0, 0, 0, 0, 0, 12969, 0, 0, 0],[0, 0, 43186, 0, 0, 21125, 0, 0, 0, 0, 32914, 0, 0, 0, 0, 0, 0, 0, 0, 0, 0, 0, 0, 0, 0, 0, 0, 0, 0, 0, 0, 0, 0, 0, 0, 0, 0, 0, 0, 0, 0, 6429, 0, 0, 0, 27038, 32507, 0, 0, 30296, 0, 0, 24672, 0, 0, 0, 0, 0, 0, 0, 35673, 45573, 0, 0, 0, 45136, -1, 0, 0, 12320, 0, 0, 0, 15074, 0, 0, 0, 0],[0, 0, 0, 0, 0, 35292, 0, 29032, 0, 41883, 34537, 0, 10172, 0, 13550, 0, 0, 34112, 0, 0, 0, 0, 0, 0, 0, 40562, 0, 0, 32249, 0, 28740, 0, 0, 0, 0, 0, 29392, 0, 0, 0, 0, 36682, 0, 0, 0, 0, 0, 0, 0, 0, 0, 0, 0, 44439, 36088, 0, 0, 0, 37125, 0, 20295, 29479, 0, 0, 0, 0, 0, -1, 0, 0, 37472, 0, 36573, 0, 0, 0, 0, 28895],[25556, 0, 0, 0, 0, 0, 0, 0, 0, 0, 0, 0, 0, 0, 0, 0, 0, 45792, 13735, 0, 0, 0, 0, 11374, 0, 0, 43404, 0, 18264, 24595, 0, 0, 21621, 21704, 0, 0, 0, 0, 0, 0, 0, 0, 0, 0, 0, 0, 0, 0, 0, 0, 32449, 39920, 0, 43930, 0, 0, 0, 0, 0, 0, 0, 0, 42084, 16811, 0, 0, 0, 0, -1, 0, 0, 0, 32062, 0, 42874, 0, 0, 0],[0, 13728, 30807, 0, 13226, 36308, 42447, 0, 0, 0, 32198, 0, 0, 0, 0, 0, 44720, 30333, 0, 0, 40333, 39149, 0, 42707, 0, 37418, 0, 0, 0, 0, 0, 0, 0, 0, 0, 0, 0, 0, 0, 0, 32615, 0, 40905, 0, 0, 0, 0, 0, 0, 0, 5830, 0, 0, 0, 0, 0, 0, 35642, 0, 0, 0, 0, 0, 0, 0, 0, 12320, 0, 0, -1, 0, 0, 0, 0, 0, 23542, 0, 30301],[0, 41578, 37124, 0, 0, 0, 43862, 0, 41323, 31407, 0, 0, 7168, 0, 0, 0, 0, 0, 0, 0, 25357, 0, 0, 0, 0, 0, 0, 0, 0, 0, 0, 0, 0, 0, 0, 0, 0, 0, 0, 21394, 0, 0, 0, 0, 1205, 0, 0, 0, 0, 42956, 0, 40393, 0, 32024, 37880, 0, 0, 0, 45892, 0, 0, 0, 0, 0, 0, 0, 0, 37472, 0, 0, -1, 0, 28570, 0, 0, 0, 0, 0],[18187, 44372, 0, 0, 0, 0, 0, 0, 36876, 41629, 0, 0, 0, 30375, 0, 22050, 33691, 0, 0, 42993, 0, 0, 18618, 0, 0, 0, 0, 0, 0, 0, 0, 0, 34911, 31932, 0, 25108, 43489, 0, 30914, 0, 0, 32179, 0, 30980, 0, 0, 0, 35847, 0, 0, 0, 0, 24662, 0, 45020, 0, 0, 23315, 0, 0, 34372, 0, 0, 26221, 18022, 0, 0, 0, 0, 0, 0, -1, 45081, 29801, 0, 0, 0, 0],[0, 0, 0, 33048, 0, 41472, 0, 0, 0, 0, 36853, 0, 0, 0, 35930, 0, 15877, 0, 0, 0, 0, 0, 0, 0, 37971, 0, 0, 16311, 38276, 0, 29147, 0, 0, 25556, 0, 0, 0, 0, 0, 0, 0, 0, 0, 0, 30300, 0, 0, 0, 0, 0, 0, 0, 0, 0, 0, 0, 44008, 0, 0, 0, 0, 0, 0, 0, 10536, 0, 0, 36573, 32062, 0, 28570, 45081, -1, 0, 35596, 0, 10120, 40594],[41700, 0, 0, 0, 45087, 0, 44247, 0, 0, 0, 0, 0, 0, 0, 0, 0, 0, 30549, 0, 0, 44694, 39963, 0, 0, 0, 0, 0, 0, 0, 4384, 0, 0, 44273, 36430, 0, 37223, 0, 0, 33734, 0, 19560, 0, 0, 30886, 21108, 0, 27254, 0, 22427, 0, 0, 0, 9208, 42271, 0, 43549, 0, 42996, 0, 0, 0, 0, 0, 0, 43970, 0, 15074, 0, 0, 0, 0, 29801, 0, -1, 0, 0, 0, 0],[0, 43120, 0, 0, 0, 0, 0, 5741, 0, 38271, 0, 0, 0, 24219, 43268, 0, 0, 0, 29358, 0, 0, 0, 0, 25855, 0, 0, 45274, 0, 0, 23518, 0, 33257, 0, 0, 0, 0, 33476, 0, 0, 39840, 0, 0, 28745, 0, 14806, 0, 0, 0, 0, 0, 0, 38652, 0, 0, 26562, 0, 0, 0, 0, 0, 0, 13832, 0, 0, 0, 12969, 0, 0, 42874, 0, 0, 0, 35596, 0, -1, 0, 0, 34206],[38743, 0, 0, 28497, 0, 0, 0, 0, 43635, 0, 0, 45780, 0, 0, 0, 0, 0, 0, 0, 28678, 18991, 0, 0, 0, 0, 0, 26278, 0, 0, 0, 0, 0, 0, 0, 0, 0, 0, 0, 38790, 0, 0, 0, 0, 0, 0, 0, 15298, 38341, 0, 28639, 0, 19948, 0, 0, 0, 0, 0, 0, 0, 0, 0, 0, 0, 12386, 0, 0, 0, 0, 0, 23542, 0, 0, 0, 0, 0, -1, 41617, 24494],[42631, 0, 0, 0, 0, 28802, 0, 0, 0, 0, 0, 0, 41626, 0, 0, 0, 0, 0, 0, 0, 27441, 0, 20560, 0, 0, 37977, 28581, 0, 36798, 21105, 0, 0, 0, 0, 0, 42161, 0, 0, 5515, 0, 31729, 32053, 0, 31293, 0, 40748, 0, 0, 0, 0, 23955, 17453, 0, 0, 0, 6725, 0, 33578, 0, 37593, 17643, 0, 0, 0, 0, 0, 0, 0, 0, 0, 0, 0, 10120, 0, 0, 41617, -1, 18379],[0, 0, 0, 0, 21781, 33985, 40398, 0, 0, 29510, 36779, 0, 23080, 0, 0, 0, 21308, 0, 30578, 0, 0, 0, 28944, 0, 0, 0, 0, 20467, 0, 0, 0, 0, 0, 0, 17696, 0, 0, 24484, 0, 0, 0, 0, 0, 0, 0, 0, 19146, 0, 44030, 0, 0, 0, 0, 0, 45746, 0, 0, 33495, 3128, 8343, 0, 44258, 0, 6203, 13216, 0, 0, 28895, 0, 30301, 0, 0, 40594, 0, 34206, 24494, 18379, -1]]